* #variable= 56 #constraint= 3 
+1 x1 -1 x29 +2 x2 -2 x30 +4 x3 -4 x31 +8 x4 -8 x32 +16 x5 -16 x33 +32 x6 -32 x34 +64 x7 -64 x35 +128 x8 -128 x36 +256 x9 -256 x37 +512 x10 -512 x38 +1024 x11 -1024 x39 +2048 x12 -2048 x40 +4096 x13 -4096 x41 +8192 x14 -8192 x42 +16384 x15 -16384 x43 +32768 x16 -32768 x44 +65536 x17 -65536 x45 +131072 x18 -131072 x46 +262144 x19 -262144 x47 +524288 x20 -524288 x48 +1048576 x21 -1048576 x49 +2097152 x22 -2097152 x50 +4194304 x23 -4194304 x51 +8388608 x24 -8388608 x52 +16777216 x25 -16777216 x53 +33554432 x26 -33554432 x54 +67108864 x27 -67108864 x55 +134217728 x28 -134217728 x56 = 0 ;
-1 x1 -1 x29 >= -1; 
+1 x1 +1 x29 >= 1; 
